benchmarks_CP/INST_36x36/25/inst36x36_25_80.dzn
S=6;
start=[|
-1,	-1,	-1,	26,	25,	17,	-1,	14,	-1,	-1,	-1,	-1,	33,	-1,	-1,	-1,	-1,	-1,	-1,	-1,	28,	-1,	-1,	-1,	-1,	18,	-1,	-1,	4,	-1,	-1,	-1,	-1,	34,	6,	-1|
-1,	-1,	15,	-1,	-1,	9,	-1,	-1,	18,	-1,	-1,	-1,	-1,	-1,	-1,	1,	-1,	-1,	-1,	29,	-1,	4,	-1,	-1,	12,	-1,	-1,	16,	-1,	-1,	-1,	-1,	-1,	5,	21,	-1|
-1,	29,	-1,	2,	-1,	-1,	-1,	-1,	-1,	-1,	-1,	-1,	-1,	-1,	-1,	30,	-1,	13,	19,	8,	-1,	-1,	34,	-1,	-1,	-1,	27,	-1,	-1,	-1,	-1,	-1,	-1,	-1,	-1,	-1|
-1,	-1,	-1,	-1,	20,	-1,	-1,	-1,	-1,	-1,	-1,	-1,	-1,	-1,	-1,	-1,	4,	-1,	23,	22,	-1,	-1,	-1,	-1,	17,	-1,	-1,	-1,	1,	-1,	15,	11,	-1,	-1,	-1,	31|
-1,	-1,	-1,	-1,	-1,	-1,	21,	-1,	25,	-1,	35,	-1,	-1,	-1,	8,	34,	-1,	-1,	-1,	-1,	-1,	-1,	-1,	13,	-1,	-1,	-1,	-1,	-1,	29,	-1,	-1,	-1,	-1,	-1,	10|
3,	36,	-1,	-1,	-1,	-1,	1,	-1,	-1,	-1,	-1,	-1,	-1,	35,	-1,	-1,	10,	-1,	-1,	-1,	-1,	-1,	-1,	-1,	26,	-1,	-1,	-1,	-1,	9,	25,	-1,	-1,	-1,	17,	-1|
-1,	-1,	16,	-1,	-1,	-1,	-1,	-1,	22,	13,	-1,	-1,	-1,	-1,	35,	-1,	-1,	7,	-1,	-1,	-1,	36,	20,	-1,	-1,	-1,	-1,	-1,	-1,	-1,	-1,	-1,	3,	-1,	4,	-1|
-1,	-1,	-1,	-1,	-1,	-1,	-1,	-1,	-1,	-1,	-1,	-1,	-1,	-1,	-1,	22,	31,	24,	-1,	-1,	-1,	-1,	-1,	-1,	6,	-1,	-1,	-1,	-1,	-1,	-1,	-1,	-1,	-1,	5,	-1|
-1,	-1,	36,	25,	-1,	31,	-1,	-1,	1,	-1,	-1,	-1,	-1,	27,	-1,	-1,	-1,	23,	-1,	-1,	-1,	34,	-1,	24,	-1,	-1,	10,	19,	16,	-1,	-1,	-1,	-1,	-1,	-1,	-1|
-1,	5,	-1,	27,	3,	-1,	-1,	32,	-1,	28,	-1,	4,	-1,	11,	-1,	18,	25,	-1,	29,	-1,	2,	13,	-1,	26,	-1,	-1,	24,	-1,	-1,	-1,	-1,	-1,	23,	31,	-1,	-1|
-1,	-1,	-1,	-1,	-1,	-1,	-1,	-1,	-1,	-1,	-1,	-1,	-1,	-1,	-1,	4,	-1,	-1,	-1,	-1,	7,	-1,	17,	-1,	2,	-1,	-1,	3,	29,	-1,	-1,	-1,	18,	16,	-1,	15|
-1,	-1,	-1,	-1,	9,	15,	-1,	21,	-1,	-1,	-1,	-1,	-1,	-1,	-1,	-1,	2,	-1,	-1,	18,	-1,	-1,	31,	25,	-1,	-1,	-1,	13,	-1,	36,	-1,	-1,	-1,	26,	-1,	-1|
36,	-1,	-1,	-1,	-1,	-1,	-1,	-1,	-1,	-1,	-1,	-1,	-1,	26,	-1,	-1,	-1,	31,	-1,	-1,	11,	28,	-1,	-1,	-1,	-1,	-1,	1,	-1,	4,	-1,	14,	-1,	-1,	23,	-1|
20,	-1,	-1,	-1,	-1,	11,	-1,	-1,	35,	-1,	-1,	-1,	-1,	-1,	-1,	-1,	-1,	-1,	-1,	-1,	-1,	-1,	-1,	-1,	23,	-1,	-1,	29,	-1,	-1,	-1,	-1,	-1,	-1,	-1,	4|
10,	-1,	-1,	22,	-1,	35,	36,	-1,	17,	18,	-1,	-1,	-1,	29,	-1,	-1,	-1,	30,	-1,	23,	-1,	26,	-1,	-1,	-1,	-1,	34,	-1,	19,	-1,	-1,	31,	24,	-1,	28,	-1|
-1,	-1,	-1,	-1,	23,	-1,	28,	-1,	-1,	-1,	-1,	-1,	-1,	-1,	-1,	-1,	-1,	-1,	18,	-1,	-1,	-1,	-1,	-1,	-1,	-1,	-1,	33,	-1,	13,	-1,	32,	-1,	-1,	-1,	-1|
-1,	4,	-1,	-1,	32,	-1,	-1,	26,	-1,	-1,	-1,	-1,	-1,	-1,	-1,	-1,	28,	-1,	17,	31,	-1,	-1,	-1,	-1,	-1,	-1,	-1,	36,	-1,	3,	-1,	-1,	-1,	-1,	-1,	9|
-1,	-1,	18,	-1,	-1,	-1,	-1,	-1,	2,	-1,	-1,	-1,	-1,	23,	-1,	-1,	-1,	-1,	-1,	10,	-1,	35,	8,	-1,	-1,	-1,	-1,	26,	-1,	-1,	-1,	20,	-1,	-1,	-1,	-1|
-1,	-1,	-1,	-1,	8,	-1,	2,	-1,	-1,	21,	17,	-1,	-1,	-1,	28,	-1,	-1,	-1,	-1,	-1,	-1,	23,	9,	12,	1,	-1,	-1,	-1,	-1,	-1,	-1,	-1,	-1,	7,	19,	-1|
-1,	-1,	-1,	-1,	22,	5,	-1,	16,	-1,	-1,	1,	-1,	-1,	-1,	-1,	-1,	33,	-1,	-1,	-1,	-1,	-1,	-1,	-1,	-1,	-1,	-1,	-1,	10,	-1,	-1,	-1,	-1,	-1,	-1,	-1|
13,	17,	-1,	-1,	-1,	-1,	-1,	-1,	-1,	-1,	-1,	33,	18,	-1,	-1,	9,	-1,	-1,	-1,	-1,	-1,	-1,	-1,	-1,	-1,	27,	28,	-1,	-1,	-1,	29,	16,	-1,	-1,	-1,	-1|
-1,	9,	19,	-1,	-1,	-1,	-1,	-1,	32,	27,	-1,	-1,	-1,	-1,	30,	-1,	-1,	-1,	-1,	-1,	-1,	-1,	-1,	-1,	-1,	-1,	-1,	31,	-1,	-1,	-1,	-1,	-1,	3,	12,	-1|
-1,	28,	-1,	-1,	-1,	-1,	-1,	-1,	-1,	-1,	-1,	31,	-1,	-1,	1,	-1,	-1,	-1,	-1,	-1,	15,	-1,	19,	-1,	-1,	-1,	-1,	24,	-1,	33,	-1,	13,	10,	-1,	25,	-1|
30,	-1,	-1,	-1,	-1,	32,	-1,	-1,	-1,	-1,	22,	-1,	8,	-1,	-1,	-1,	29,	-1,	-1,	33,	-1,	-1,	10,	-1,	-1,	-1,	-1,	-1,	-1,	-1,	-1,	4,	-1,	-1,	-1,	14|
-1,	10,	33,	-1,	-1,	2,	-1,	15,	-1,	-1,	-1,	-1,	35,	-1,	-1,	-1,	-1,	-1,	-1,	-1,	23,	-1,	-1,	-1,	21,	-1,	-1,	9,	34,	-1,	-1,	-1,	-1,	-1,	-1,	-1|
-1,	-1,	21,	9,	-1,	-1,	-1,	36,	-1,	-1,	-1,	-1,	-1,	-1,	-1,	5,	26,	8,	-1,	28,	25,	-1,	-1,	-1,	15,	-1,	-1,	-1,	-1,	-1,	-1,	-1,	-1,	20,	-1,	-1|
-1,	-1,	-1,	-1,	-1,	-1,	-1,	-1,	-1,	-1,	-1,	-1,	-1,	-1,	-1,	-1,	-1,	-1,	13,	-1,	-1,	-1,	-1,	-1,	24,	-1,	23,	-1,	-1,	-1,	-1,	26,	-1,	-1,	30,	8|
23,	15,	11,	-1,	-1,	-1,	32,	-1,	-1,	-1,	-1,	-1,	-1,	-1,	-1,	-1,	-1,	14,	34,	-1,	-1,	-1,	4,	-1,	-1,	-1,	-1,	-1,	3,	8,	-1,	35,	5,	-1,	10,	-1|
-1,	-1,	28,	-1,	-1,	-1,	-1,	-1,	-1,	-1,	23,	-1,	-1,	-1,	-1,	-1,	-1,	-1,	-1,	-1,	-1,	1,	-1,	-1,	-1,	-1,	-1,	-1,	14,	32,	-1,	3,	2,	21,	15,	-1|
24,	35,	5,	-1,	-1,	-1,	-1,	18,	-1,	-1,	-1,	-1,	-1,	-1,	32,	-1,	-1,	-1,	2,	-1,	-1,	27,	-1,	3,	-1,	-1,	-1,	7,	-1,	-1,	-1,	-1,	-1,	-1,	29,	-1|
33,	34,	-1,	-1,	-1,	-1,	-1,	-1,	-1,	36,	12,	-1,	-1,	14,	-1,	23,	-1,	2,	-1,	-1,	35,	15,	-1,	-1,	-1,	-1,	-1,	27,	-1,	-1,	-1,	-1,	-1,	-1,	-1,	-1|
35,	31,	24,	-1,	-1,	-1,	-1,	-1,	-1,	32,	29,	-1,	12,	-1,	-1,	-1,	-1,	25,	-1,	-1,	-1,	8,	33,	-1,	7,	-1,	-1,	34,	-1,	-1,	-1,	-1,	-1,	-1,	-1,	-1|
-1,	-1,	-1,	-1,	12,	-1,	31,	-1,	-1,	-1,	-1,	2,	-1,	-1,	-1,	29,	-1,	-1,	-1,	-1,	30,	-1,	-1,	-1,	-1,	24,	-1,	-1,	-1,	-1,	-1,	-1,	-1,	-1,	-1,	-1|
-1,	-1,	-1,	-1,	15,	-1,	-1,	-1,	-1,	-1,	-1,	18,	-1,	-1,	-1,	10,	-1,	-1,	-1,	-1,	-1,	-1,	5,	11,	-1,	25,	-1,	-1,	-1,	14,	-1,	-1,	-1,	-1,	-1,	30|
-1,	13,	-1,	11,	-1,	-1,	-1,	-1,	-1,	-1,	-1,	-1,	-1,	1,	18,	-1,	-1,	-1,	-1,	-1,	-1,	-1,	-1,	-1,	-1,	-1,	-1,	-1,	-1,	-1,	-1,	-1,	-1,	-1,	-1,	-1|
-1,	-1,	8,	32,	-1,	30,	14,	33,	-1,	5,	-1,	-1,	-1,	-1,	-1,	-1,	-1,	-1,	-1,	16,	-1,	-1,	-1,	-1,	-1,	-1,	-1,	-1,	-1,	-1,	26,	-1,	-1,	-1,	27,	-1|];
